(set-info :source |printed by MathSAT|)
(declare-fun |main::expr_tmp_var_20_uint@3| () (_ BitVec 32))
(declare-fun |main::n@3| () (_ BitVec 32))
(declare-fun |main::local_20@2| () (_ BitVec 32))
(declare-fun |main::sn@3| () (_ BitVec 32))
(declare-fun |main::n@4| () (_ BitVec 32))
(declare-fun |main::expr_tmp_var_20_uint@4| () (_ BitVec 32))
(declare-fun |main::sn@4| () (_ BitVec 32))
(declare-fun |main::n@5| () (_ BitVec 32))
(declare-fun |main::expr_tmp_var_20_uint@5| () (_ BitVec 32))
(declare-fun |main::sn@5| () (_ BitVec 32))
(declare-fun |main::n@6| () (_ BitVec 32))
(declare-fun |main::expr_tmp_var_20_uint@6| () (_ BitVec 32))
(declare-fun |main::sn@6| () (_ BitVec 32))
(declare-fun |main::n@7| () (_ BitVec 32))
(declare-fun |main::expr_tmp_var_20_uint@7| () (_ BitVec 32))
(declare-fun |main::sn@7| () (_ BitVec 32))
(declare-fun |main::n@8| () (_ BitVec 32))
(declare-fun |main::expr_tmp_var_20_uint@8| () (_ BitVec 32))
(declare-fun |main::sn@8| () (_ BitVec 32))
(declare-fun |main::expr_tmp_var_20_uint@9| () (_ BitVec 32))
(declare-fun |main::sn@9| () (_ BitVec 32))
(assert (let ((.def_31 (bvslt |main::local_20@2| |main::sn@3|)))(let ((.def_32 (not .def_31)))(let ((.def_25 (= |main::sn@3| (_ bv1 32))))(let ((.def_18 (= |main::local_20@2| (_ bv2147483647 32))))(let ((.def_19 (not .def_18)))(let ((.def_14 (= |main::n@3| (_ bv0 32))))(let ((.def_12 (= |main::expr_tmp_var_20_uint@3| (_ bv10 32))))(let ((.def_15 (and .def_12 .def_14)))(let ((.def_22 (and .def_15 .def_19)))(let ((.def_26 (and .def_22 .def_25)))(let ((.def_508 (and .def_26 .def_32)))(let ((.def_69 (bvslt |main::sn@3| |main::expr_tmp_var_20_uint@3|)))(let ((.def_509 (and .def_69 .def_508)))(let ((.def_76 (bvadd (_ bv2 32) |main::n@3|)))(let ((.def_78 (= .def_76 |main::n@4|)))(let ((.def_510 (and .def_78 .def_509)))(let ((.def_86 (bvadd (_ bv4294967295 32) |main::expr_tmp_var_20_uint@3|)))(let ((.def_88 (= .def_86 |main::expr_tmp_var_20_uint@4|)))(let ((.def_511 (and .def_88 .def_510)))(let ((.def_91 (bvadd (_ bv1 32) |main::sn@3|)))(let ((.def_93 (= .def_91 |main::sn@4|)))(let ((.def_512 (and .def_93 .def_511)))(let ((.def_96 (bvslt |main::local_20@2| |main::sn@4|)))(let ((.def_97 (not .def_96)))(let ((.def_513 (and .def_97 .def_512)))(let ((.def_123 (bvslt |main::sn@4| |main::expr_tmp_var_20_uint@4|)))(let ((.def_514 (and .def_123 .def_513)))(let ((.def_129 (bvadd (_ bv2 32) |main::n@4|)))(let ((.def_131 (= .def_129 |main::n@5|)))(let ((.def_515 (and .def_131 .def_514)))(let ((.def_138 (bvadd (_ bv4294967295 32) |main::expr_tmp_var_20_uint@4|)))(let ((.def_140 (= .def_138 |main::expr_tmp_var_20_uint@5|)))(let ((.def_516 (and .def_140 .def_515)))(let ((.def_143 (bvadd (_ bv1 32) |main::sn@4|)))(let ((.def_145 (= .def_143 |main::sn@5|)))(let ((.def_517 (and .def_145 .def_516)))(let ((.def_148 (bvslt |main::local_20@2| |main::sn@5|)))(let ((.def_149 (not .def_148)))(let ((.def_518 (and .def_149 .def_517)))(let ((.def_213 (bvslt |main::sn@5| |main::expr_tmp_var_20_uint@5|)))(let ((.def_519 (and .def_213 .def_518)))(let ((.def_219 (bvadd (_ bv2 32) |main::n@5|)))(let ((.def_221 (= .def_219 |main::n@6|)))(let ((.def_520 (and .def_221 .def_519)))(let ((.def_228 (bvadd (_ bv4294967295 32) |main::expr_tmp_var_20_uint@5|)))(let ((.def_230 (= .def_228 |main::expr_tmp_var_20_uint@6|)))(let ((.def_521 (and .def_230 .def_520)))(let ((.def_233 (bvadd (_ bv1 32) |main::sn@5|)))(let ((.def_235 (= .def_233 |main::sn@6|)))(let ((.def_522 (and .def_235 .def_521)))(let ((.def_238 (bvslt |main::local_20@2| |main::sn@6|)))(let ((.def_239 (not .def_238)))(let ((.def_523 (and .def_239 .def_522)))(let ((.def_269 (bvslt |main::sn@6| |main::expr_tmp_var_20_uint@6|)))(let ((.def_524 (and .def_269 .def_523)))(let ((.def_275 (bvadd (_ bv2 32) |main::n@6|)))(let ((.def_277 (= .def_275 |main::n@7|)))(let ((.def_525 (and .def_277 .def_524)))(let ((.def_284 (bvadd (_ bv4294967295 32) |main::expr_tmp_var_20_uint@6|)))(let ((.def_286 (= .def_284 |main::expr_tmp_var_20_uint@7|)))(let ((.def_526 (and .def_286 .def_525)))(let ((.def_289 (bvadd (_ bv1 32) |main::sn@6|)))(let ((.def_291 (= .def_289 |main::sn@7|)))(let ((.def_527 (and .def_291 .def_526)))(let ((.def_294 (bvslt |main::local_20@2| |main::sn@7|)))(let ((.def_295 (not .def_294)))(let ((.def_528 (and .def_295 .def_527)))(let ((.def_324 (bvslt |main::sn@7| |main::expr_tmp_var_20_uint@7|)))(let ((.def_529 (and .def_324 .def_528)))(let ((.def_330 (bvadd (_ bv2 32) |main::n@7|)))(let ((.def_332 (= .def_330 |main::n@8|)))(let ((.def_530 (and .def_332 .def_529)))(let ((.def_339 (bvadd (_ bv4294967295 32) |main::expr_tmp_var_20_uint@7|)))(let ((.def_341 (= .def_339 |main::expr_tmp_var_20_uint@8|)))(let ((.def_531 (and .def_341 .def_530)))(let ((.def_344 (bvadd (_ bv1 32) |main::sn@7|)))(let ((.def_346 (= .def_344 |main::sn@8|)))(let ((.def_532 (and .def_346 .def_531)))(let ((.def_349 (bvslt |main::local_20@2| |main::sn@8|)))(let ((.def_350 (not .def_349)))(let ((.def_533 (and .def_350 .def_532)))(let ((.def_378 (bvslt |main::sn@8| |main::expr_tmp_var_20_uint@8|)))(let ((.def_381 (not .def_378)))(let ((.def_534 (and .def_381 .def_533)))(let ((.def_393 (bvadd (_ bv4294967295 32) |main::expr_tmp_var_20_uint@8|)))(let ((.def_395 (= .def_393 |main::expr_tmp_var_20_uint@9|)))(let ((.def_535 (and .def_395 .def_534)))(let ((.def_398 (bvadd (_ bv1 32) |main::sn@8|)))(let ((.def_400 (= .def_398 |main::sn@9|)))(let ((.def_536 (and .def_400 .def_535)))(let ((.def_403 (bvslt |main::local_20@2| |main::sn@9|)))(let ((.def_537 (and .def_403 .def_536)))(let ((.def_34 (bvshl |main::local_20@2| (_ bv1 32))))(let ((.def_366 (= .def_34 |main::n@8|)))(let ((.def_367 (not .def_366)))(let ((.def_538 (and .def_367 .def_537)))(let ((.def_371 (= |main::n@8| (_ bv0 32))))(let ((.def_372 (not .def_371)))(let ((.def_539 (and .def_372 .def_538))).def_539))))))))))))))))))))))))))))))))))))))))))))))))))))))))))))))))))))))))))))))))))))))))))))))))))))